Ipopt 3.12.8: 

******************************************************************************
This program contains Ipopt, a library for large-scale nonlinear optimization.
 Ipopt is released as open source code under the Eclipse Public License (EPL).
         For more information visit http://projects.coin-or.org/Ipopt
******************************************************************************

This is Ipopt version 3.12.8, running with linear solver ma27.

Number of nonzeros in equality constraint Jacobian...:        0
Number of nonzeros in inequality constraint Jacobian.:        0
Number of nonzeros in Lagrangian Hessian.............:        9

Total number of variables............................:        5
                     variables with only lower bounds:        0
                variables with lower and upper bounds:        0
                     variables with only upper bounds:        0
Total number of equality constraints.................:        0
Total number of inequality constraints...............:        0
        inequality constraints with only lower bounds:        0
   inequality constraints with lower and upper bounds:        0
        inequality constraints with only upper bounds:        0

iter    objective    inf_pr   inf_du lg(mu)  ||d||  lg(rg) alpha_du alpha_pr  ls
   0  4.0000000e+00 0.00e+00 4.00e+00  -1.0 0.00e+00    -  0.00e+00 0.00e+00   0
   1  3.9627109e+00 0.00e+00 2.72e+00  -1.0 3.74e-01    -  1.00e+00 5.00e-01f  2
   2  3.9391924e+00 0.00e+00 7.56e-01  -1.0 7.48e-02    -  1.00e+00 1.00e+00f  1
   3  3.9328050e+00 0.00e+00 9.47e-01  -1.7 9.87e-02    -  1.00e+00 1.00e+00f  1
   4  3.9309504e+00 0.00e+00 7.10e-02  -1.7 1.98e-02    -  1.00e+00 1.00e+00f  1
   5  3.9308404e+00 0.00e+00 2.17e-02  -2.5 1.43e-02    -  1.00e+00 1.00e+00f  1
   6  3.9308394e+00 0.00e+00 4.47e-05  -3.8 4.89e-04    -  1.00e+00 1.00e+00f  1
   7  3.9308394e+00 0.00e+00 9.47e-09  -5.7 9.35e-06    -  1.00e+00 1.00e+00f  1

Number of Iterations....: 7

                                   (scaled)                 (unscaled)
Objective...............:   3.9308394341330279e+00    3.9308394341330279e+00
Dual infeasibility......:   9.4668801686736970e-09    9.4668801686736970e-09
Constraint violation....:   0.0000000000000000e+00    0.0000000000000000e+00
Complementarity.........:   0.0000000000000000e+00    0.0000000000000000e+00
Overall NLP error.......:   9.4668801686736970e-09    9.4668801686736970e-09


Number of objective function evaluations             = 13
Number of objective gradient evaluations             = 8
Number of equality constraint evaluations            = 0
Number of inequality constraint evaluations          = 0
Number of equality constraint Jacobian evaluations   = 0
Number of inequality constraint Jacobian evaluations = 0
Number of Lagrangian Hessian evaluations             = 7
Total CPU secs in IPOPT (w/o function evaluations)   =      0.000
Total CPU secs in NLP function evaluations           =      0.000

EXIT: Optimal Solution Found.
obj = 3.93084

X [*] :=
1  -0.962051
2   0.935739
3   0.880714
4   0.777878
5   0.605094
;

